SECTION Graph
Nodes 92
Edges 91

E 22 30 2
E 22 722 2
E 24 30 2
E 24 424 2
E 25 30 2
E 25 35 2
E 25 325 2
E 27 30 2
E 27 47 2
E 27 527 2
E 30 40 2
E 30 50 2
E 30 70 2
E 30 80 2
E 30 100 2
E 32 35 2
E 32 532 2
E 34 35 2
E 34 334 2
E 35 37 2
E 35 45 2
E 35 75 2
E 35 95 2
E 37 437 2
E 40 740 2
E 42 47 2
E 42 442 2
E 44 47 2
E 44 744 2
E 45 545 2
E 47 77 2
E 47 97 2
E 50 350 2
E 61 70 1
E 61 161 2
E 72 92 2
E 72 372 2
E 74 80 2
E 75 475 2
E 77 777 2
E 80 580 2
E 92 94 2
E 92 100 2
E 94 594 2
E 95 795 2
E 97 397 2
E 100 500 2
E 101 106 2
E 101 161 2
E 101 201 2
E 103 106 2
E 103 803 2
E 106 108 2
E 106 109 2
E 106 116 2
E 106 156 2
E 106 186 2
E 108 908 2
E 109 609 2
E 111 161 2
E 111 611 2
E 113 119 2
E 113 213 2
E 116 916 2
E 118 119 2
E 118 818 2
E 119 159 2
E 119 169 2
E 119 189 2
E 151 161 2
E 151 851 2
E 153 158 2
E 153 653 2
E 156 256 2
E 158 168 2
E 158 188 2
E 159 959 2
E 161 163 2
E 161 166 2
E 161 168 2
E 161 169 2
E 161 181 2
E 163 183 2
E 163 963 2
E 166 866 2
E 168 668 2
E 169 269 2
E 181 981 2
E 186 686 2
E 188 288 2
E 189 889 2
END
SECTION Terminals
T 30
T 35
T 47
T 74
T 92
T 106
T 119
T 158
T 161
T 183
T 201
T 213
T 256
T 269
T 288
T 325
T 334
T 350
T 372
T 397
T 424
T 437
T 442
T 475
T 500
T 527
T 532
T 545
T 580
T 594
T 609
T 611
T 653
T 668
T 686
T 722
T 740
T 744
T 777
T 795
T 803
T 818
T 851
T 866
T 889
T 908
T 916
T 959
T 963
T 981
END
SECTION Cost
181
END
